VRPTWMS/instances/mip/freight/5/N5-C_DV10-C_SV50_F12_17_No_1.log

Gurobi 6.0.4 (win64) logging started 06/13/15 23:06:37

Warning: unknown variable 'kDash_dN' in bounds section
Read LP format model from file C:\MT\repository\VRPTWMS\instances\mip\freight\N5-C_DV10-C_SV50_F12_17_No_1.lp
Reading time = 0.00 seconds
(null): 161 rows, 110 columns, 603 nonzeros
Optimize a model with 161 rows, 110 columns and 603 nonzeros
Model has 180 quadratic constraints
WARNING: Only barrier available for SOCP models
Coefficient statistics:
  Matrix range    [1e+00, 1e+02]
  Objective range [1e+01, 1e+03]
  Bounds range    [1e+00, 1e+02]
  RHS range       [1e+00, 1e+02]
Presolve removed 18 rows and 9 columns
Presolve time: 0.02s
Presolved: 598 rows, 341 columns, 2578 nonzeros
Variable types: 215 continuous, 126 integer (92 binary)
Found heuristic solution: objective 5224.7000000
Optimize a model with 598 rows, 341 columns and 2578 nonzeros
Coefficient statistics:
  Matrix range    [1e+00, 1e+02]
  Objective range [1e+01, 1e+03]
  Bounds range    [1e+00, 1e+02]
  RHS range       [1e+00, 1e+02]
Presolve removed 34 rows and 19 columns
Presolved: 564 rows, 324 columns, 2429 nonzeros


Root relaxation: objective 1.061113e+02, 75 iterations, 0.01 seconds

    Nodes    |    Current Node    |     Objective Bounds      |     Work
 Expl Unexpl |  Obj  Depth IntInf | Incumbent    BestBd   Gap | It/Node Time

     0     0  106.11125    0   45 5224.70000  106.11125  98.0%     -    0s
H    0     0                    3158.0300000  106.11125  96.6%     -    0s
     0     0  278.66972    0   37 3158.03000  278.66972  91.2%     -    0s
     0     0 1055.78901    0   53 3158.03000 1055.78901  66.6%     -    0s
H    0     0                    2182.4200000 1055.78901  51.6%     -    0s
     0     0 1073.38537    0   53 2182.42000 1073.38537  50.8%     -    0s
     0     0 1074.68388    0   53 2182.42000 1074.68388  50.8%     -    0s
     0     0 1074.68388    0   48 2182.42000 1074.68388  50.8%     -    0s
     0     0 1074.68388    0   51 2182.42000 1074.68388  50.8%     -    0s
     0     0 1074.68388    0   49 2182.42000 1074.68388  50.8%     -    0s
     0     0 1074.68388    0   44 2182.42000 1074.68388  50.8%     -    0s
     0     0 1074.68388    0   48 2182.42000 1074.68388  50.8%     -    0s
     0     0 1074.68388    0   47 2182.42000 1074.68388  50.8%     -    0s
     0     2 1074.68388    0   47 2182.42000 1074.68388  50.8%     -    0s

Cutting planes:
  Gomory: 1
  Cover: 29
  Implied bound: 50
  Clique: 26
  MIR: 42
  Flow cover: 6
  GUB cover: 9

Explored 385 nodes (11312 simplex iterations) in 0.34 seconds
Thread count was 2 (of 4 available processors)

Optimal solution found (tolerance 1.00e-04)
Best objective 2.182420000000e+03, best bound 2.182420000000e+03, gap 0.0%
k_c1	10.0
k_c2	10.0
k_c3	8.0
k_c4	6.0
k_c5	10.0
k_dN	-0.0
kDash_c1	8.0
kDash_c2	6.0
kDash_c3	3.0
kDash_c4	-0.0
kDash_c5	-0.0
kDash_dN	-0.0
o_1	-0.0
o_2	-0.0
o_3	-0.0
o_4	-0.0
o_5	-0.0
p_1	-0.0
p_2	-0.0
p_3	1.0
p_4	-0.0
p_5	1.0
phi_c1	9.0
phi_c2	5.0
phi_c3	8.0
phi_c4	3.0
phi_c5	10.0
phi_d0	12.0
phi_dN	-0.0
pi_c1	17.0
pi_c2	19.0
pi_c3	17.0
pi_c4	25.0
pi_c5	27.0
pi_dN	-0.0
tauD_c1	45.0
tauD_c2	74.0
tauD_c3	54.0
tauD_c4	85.0
tauD_c5	11.0
tauD_d0	-0.0
tauD_dN	100.0
tauS_c1	86.0
tauS_c2	87.0
tauS_c3	37.0
tauS_c4	82.0
tauS_c5	9.0
tauS_d0	-0.0
tauS_dN	69.0
x_c1_c3	1.0
x_c2_c4	1.0
x_c3_c2	1.0
x_c4_dN	1.0
x_c5_c1	1.0
x_d0_c5	1.0
z_c3_dN	1.0
z_c5_c3	1.0
z_d0_c5	1.0
